DIMACS2
40 141 101 31 130 112 145 149 24 99 144 75 42 4 109 2 81 93 50 115 155 78 20 100 74 6 121 90 60 52 66 22 64 153 103 95 83 9 118 98 18
p edge 160 629
e 0 123 1.0
e 0 95 30.0
e 0 47 1.0
e 0 56 1.0
e 1 41 1.0
e 1 52 24.0
e 1 48 1.0
e 2 69 41.0
e 2 30 8.0
e 2 0 16.0
e 2 101 45.0
e 3 14 2.0
e 3 34 1.0
e 3 143 1.0
e 3 5 1.0
e 4 22 15.0
e 4 129 5.0
e 4 55 32.0
e 4 73 35.0
e 5 104 1.0
e 5 60 11.0
e 5 126 1.0
e 5 102 1.0
e 6 99 16.0
e 6 40 11.0
e 6 70 38.0
e 6 79 42.0
e 7 149 42.0
e 7 66 12.0
e 7 105 1.0
e 7 145 27.0
e 8 22 19.0
e 8 17 1.0
e 8 60 5.0
e 8 148 1.0
e 9 12 35.0
e 9 13 31.0
e 9 158 5.0
e 9 48 30.0
e 10 50 48.0
e 10 74 32.0
e 10 125 1.0
e 10 103 5.0
e 11 140 2.0
e 11 19 1.0
e 11 135 1.0
e 12 14 2.0
e 12 24 29.0
e 12 142 1.0
e 13 135 1.0
e 13 23 1.0
e 13 80 1.0
e 13 122 1.0
e 14 13 1.0
e 14 155 21.0
e 14 1 1.0
e 14 133 1.0
e 15 99 26.0
e 15 132 1.0
e 15 18 10.0
e 15 67 1.0
e 16 41 1.0
e 16 2 39.0
e 16 137 1.0
e 16 98 2.0
e 17 12 1.0
e 17 152 1.0
e 17 120 1.0
e 17 13 1.0
e 18 28 1.0
e 18 135 48.0
e 18 102 34.0
e 18 24 39.0
e 19 147 1.0
e 19 40 1.0
e 19 96 1.0
e 19 65 1.0
e 20 122 13.0
e 20 4 38.0
e 20 79 16.0
e 20 22 41.0
e 21 118 5.0
e 21 71 1.0
e 21 86 1.0
e 21 138 2.0
e 22 23 43.0
e 22 37 1.0
e 22 57 11.0
e 22 88 42.0
e 23 97 3.0
e 23 121 32.0
e 23 138 1.0
e 23 46 1.0
e 24 91 32.0
e 24 131 42.0
e 24 123 8.0
e 24 95 47.0
e 25 83 26.0
e 25 39 1.0
e 25 112 11.0
e 25 61 1.0
e 26 157 2.0
e 26 120 1.0
e 26 88 1.0
e 26 142 1.0
e 27 88 1.0
e 27 2 32.0
e 27 4 19.0
e 27 34 1.0
e 28 11 1.0
e 28 113 1.0
e 28 51 1.0
e 28 98 36.0
e 29 18 6.0
e 29 21 1.0
e 29 32 1.0
e 29 91 1.0
e 30 35 1.0
e 30 77 1.0
e 30 8 1.0
e 30 101 37.0
e 31 146 12.0
e 31 23 27.0
e 31 126 47.0
e 31 20 13.0
e 32 116 1.0
e 32 90 33.0
e 32 99 24.0
e 32 110 1.0
e 33 48 2.0
e 33 99 27.0
e 33 57 1.0
e 33 56 2.0
e 34 155 32.0
e 34 157 1.0
e 34 98 15.0
e 34 142 1.0
e 35 108 1.0
e 35 98 35.0
e 35 42 6.0
e 35 104 1.0
e 36 21 1.0
e 36 62 1.0
e 36 146 2.0
e 36 132 1.0
e 37 98 17.0
e 37 145 7.0
e 37 87 1.0
e 37 5 1.0
e 38 25 1.0
e 38 144 8.0
e 38 36 2.0
e 38 68 1.0
e 39 147 1.0
e 39 16 1.0
e 39 55 1.0
e 39 0 1.0
e 40 50 13.0
e 40 85 1.0
e 40 97 1.0
e 40 113 2.0
e 41 93 13.0
e 41 132 1.0
e 41 9 49.0
e 41 98 35.0
e 42 29 17.0
e 42 95 5.0
e 42 24 20.0
e 42 31 45.0
e 43 18 21.0
e 43 142 1.0
e 43 129 1.0
e 43 114 1.0
e 44 12 1.0
e 44 64 25.0
e 44 148 1.0
e 44 70 1.0
e 45 32 1.0
e 45 93 39.0
e 45 121 40.0
e 45 98 43.0
e 46 47 2.0
e 46 30 3.0
e 46 88 2.0
e 46 12 1.0
e 47 21 1.0
e 47 81 31.0
e 47 143 1.0
e 47 24 22.0
e 48 128 1.0
e 48 83 32.0
e 48 34 1.0
e 49 126 1.0
e 49 3 1.0
e 49 1 2.0
e 49 107 1.0
e 50 130 35.0
e 50 17 43.0
e 50 52 7.0
e 50 84 38.0
e 51 21 2.0
e 51 6 48.0
e 51 139 1.0
e 51 99 44.0
e 52 142 10.0
e 52 116 8.0
e 52 42 9.0
e 52 71 30.0
e 53 122 1.0
e 53 130 3.0
e 53 76 1.0
e 53 77 1.0
e 54 78 14.0
e 54 32 1.0
e 54 86 1.0
e 54 142 1.0
e 55 101 26.0
e 55 76 1.0
e 55 93 36.0
e 55 56 1.0
e 56 80 1.0
e 56 31 18.0
e 56 154 2.0
e 56 45 1.0
e 57 115 11.0
e 57 51 1.0
e 57 86 2.0
e 57 48 1.0
e 58 79 1.0
e 58 114 2.0
e 58 115 49.0
e 58 107 2.0
e 59 42 1.0
e 59 33 2.0
e 59 11 1.0
e 59 4 18.0
e 60 50 42.0
e 60 158 14.0
e 60 61 43.0
e 60 143 19.0
e 61 154 1.0
e 61 59 1.0
e 61 128 1.0
e 61 9 23.0
e 62 126 1.0
e 62 110 1.0
e 62 86 2.0
e 62 18 6.0
e 63 44 1.0
e 63 128 2.0
e 63 155 15.0
e 63 103 41.0
e 64 157 7.0
e 64 40 39.0
e 64 128 11.0
e 64 13 48.0
e 65 144 19.0
e 65 55 1.0
e 65 25 1.0
e 65 134 1.0
e 66 116 2.0
e 66 142 5.0
e 66 81 26.0
e 66 72 26.0
e 67 156 1.0
e 67 47 1.0
e 67 37 1.0
e 67 84 1.0
e 68 145 12.0
e 68 146 1.0
e 68 115 10.0
e 69 30 1.0
e 69 25 1.0
e 69 154 1.0
e 69 3 1.0
e 70 40 1.0
e 70 38 2.0
e 70 85 2.0
e 70 117 2.0
e 71 66 16.0
e 71 51 1.0
e 71 94 1.0
e 71 49 1.0
e 72 44 1.0
e 72 121 17.0
e 72 26 2.0
e 72 17 1.0
e 73 62 1.0
e 73 39 1.0
e 73 91 1.0
e 73 88 1.0
e 74 132 12.0
e 74 154 13.0
e 74 141 38.0
e 74 73 18.0
e 75 137 37.0
e 75 140 10.0
e 75 11 10.0
e 75 22 10.0
e 76 147 1.0
e 76 5 1.0
e 76 132 1.0
e 76 152 1.0
e 77 81 32.0
e 77 131 1.0
e 77 49 1.0
e 77 48 1.0
e 78 112 40.0
e 78 147 45.0
e 78 156 3.0
e 78 39 17.0
e 79 119 1.0
e 79 71 1.0
e 79 132 1.0
e 80 31 49.0
e 80 21 1.0
e 80 141 44.0
e 80 47 1.0
e 81 30 26.0
e 81 65 7.0
e 81 93 17.0
e 81 45 42.0
e 82 67 2.0
e 82 71 1.0
e 82 99 33.0
e 82 79 2.0
e 83 27 9.0
e 83 109 31.0
e 83 141 25.0
e 83 149 17.0
e 84 126 1.0
e 84 82 1.0
e 84 98 7.0
e 85 97 1.0
e 85 45 2.0
e 85 20 21.0
e 85 29 2.0
e 86 144 13.0
e 86 156 1.0
e 86 84 2.0
e 86 80 1.0
e 87 112 41.0
e 87 136 2.0
e 87 27 1.0
e 87 75 20.0
e 88 90 49.0
e 88 157 1.0
e 88 67 1.0
e 88 36 1.0
e 89 59 1.0
e 89 120 2.0
e 89 74 22.0
e 89 69 2.0
e 90 29 10.0
e 90 69 3.0
e 90 122 23.0
e 90 44 40.0
e 91 2 1.0
e 91 38 1.0
e 91 95 26.0
e 91 142 1.0
e 92 47 2.0
e 92 84 2.0
e 92 75 46.0
e 92 25 2.0
e 93 103 22.0
e 93 65 17.0
e 93 123 8.0
e 93 127 31.0
e 94 52 9.0
e 94 16 1.0
e 94 140 1.0
e 94 8 1.0
e 95 51 1.0
e 95 46 23.0
e 95 149 24.0
e 95 118 49.0
e 96 67 1.0
e 96 51 1.0
e 96 62 1.0
e 96 10 1.0
e 97 104 3.0
e 97 73 2.0
e 97 32 1.0
e 97 67 1.0
e 98 144 19.0
e 98 117 7.0
e 98 148 7.0
e 98 13 25.0
e 99 69 26.0
e 99 153 5.0
e 99 101 7.0
e 99 156 41.0
e 100 154 38.0
e 100 25 31.0
e 100 7 12.0
e 100 139 9.0
e 101 133 25.0
e 101 26 3.0
e 101 122 33.0
e 101 112 12.0
e 102 1 1.0
e 102 92 2.0
e 102 75 38.0
e 102 28 1.0
e 103 74 31.0
e 103 60 40.0
e 103 147 6.0
e 103 19 43.0
e 104 115 4.0
e 104 14 1.0
e 104 57 2.0
e 104 86 2.0
e 105 24 40.0
e 105 118 1.0
e 105 46 1.0
e 105 108 1.0
e 106 127 1.0
e 106 158 1.0
e 106 90 42.0
e 106 9 29.0
e 107 68 2.0
e 107 6 29.0
e 107 69 1.0
e 107 73 1.0
e 108 3 1.0
e 108 13 1.0
e 108 148 1.0
e 108 146 1.0
e 109 138 27.0
e 109 131 43.0
e 109 127 6.0
e 109 19 22.0
e 110 158 1.0
e 110 147 1.0
e 110 117 2.0
e 110 130 48.0
e 111 42 12.0
e 111 84 1.0
e 111 18 31.0
e 111 54 1.0
e 112 50 41.0
e 112 127 36.0
e 112 124 17.0
e 112 15 8.0
e 113 55 1.0
e 113 73 1.0
e 113 2 9.0
e 113 110 2.0
e 114 32 1.0
e 114 129 1.0
e 114 116 1.0
e 114 24 25.0
e 115 79 17.0
e 115 78 16.0
e 115 94 8.0
e 115 139 21.0
e 116 158 1.0
e 116 104 1.0
e 116 48 1.0
e 116 1 2.0
e 117 124 1.0
e 117 62 1.0
e 117 138 1.0
e 117 154 2.0
e 118 5 45.0
e 118 100 4.0
e 118 30 20.0
e 118 93 26.0
e 119 156 1.0
e 119 135 1.0
e 119 64 3.0
e 119 87 3.0
e 120 87 1.0
e 120 102 1.0
e 120 109 11.0
e 120 18 28.0
e 121 50 22.0
e 121 64 22.0
e 121 116 24.0
e 121 73 36.0
e 122 133 2.0
e 122 16 1.0
e 122 9 34.0
e 122 50 46.0
e 123 79 1.0
e 123 25 1.0
e 123 74 18.0
e 123 143 1.0
e 124 58 2.0
e 124 21 1.0
e 124 57 1.0
e 124 136 1.0
e 125 91 1.0
e 125 13 1.0
e 125 21 1.0
e 125 46 2.0
e 126 10 1.0
e 126 155 12.0
e 126 69 1.0
e 126 139 1.0
e 127 75 15.0
e 127 7 1.0
e 127 18 44.0
e 127 19 1.0
e 128 37 2.0
e 128 47 1.0
e 128 86 2.0
e 128 119 1.0
e 129 149 34.0
e 129 64 15.0
e 129 2 48.0
e 129 130 44.0
e 130 73 25.0
e 130 17 36.0
e 130 152 13.0
e 130 59 44.0
e 131 27 1.0
e 131 75 7.0
e 131 68 1.0
e 131 151 1.0
e 132 144 12.0
e 132 75 2.0
e 132 130 17.0
e 132 124 1.0
e 133 39 1.0
e 133 150 1.0
e 133 143 2.0
e 133 86 1.0
e 134 42 31.0
e 134 141 48.0
e 134 111 1.0
e 135 116 1.0
e 135 106 1.0
e 135 112 29.0
e 135 15 1.0
e 136 97 1.0
e 136 157 1.0
e 136 100 43.0
e 136 55 1.0
e 137 0 2.0
e 137 56 2.0
e 137 36 2.0
e 137 38 2.0
e 138 91 1.0
e 138 107 2.0
e 138 111 1.0
e 138 2 26.0
e 139 30 1.0
e 139 0 1.0
e 139 98 40.0
e 139 29 1.0
e 140 124 1.0
e 140 150 1.0
e 140 110 2.0
e 140 133 1.0
e 141 79 22.0
e 141 19 11.0
e 141 97 12.0
e 141 11 15.0
e 142 148 1.0
e 142 2 17.0
e 142 36 1.0
e 142 73 1.0
e 143 95 42.0
e 143 46 1.0
e 143 72 1.0
e 143 111 1.0
e 144 0 21.0
e 144 9 36.0
e 144 124 20.0
e 144 155 23.0
e 145 80 4.0
e 145 44 24.0
e 145 149 15.0
e 146 8 1.0
e 146 111 2.0
e 146 158 1.0
e 146 107 1.0
e 147 82 1.0
e 147 138 1.0
e 147 129 1.0
e 147 133 3.0
e 148 93 28.0
e 148 143 1.0
e 148 122 1.0
e 148 86 2.0
e 149 112 37.0
e 149 43 8.0
e 149 132 37.0
e 150 120 1.0
e 150 102 1.0
e 150 10 1.0
e 150 125 1.0
e 151 24 8.0
e 151 35 1.0
e 151 15 1.0
e 151 77 1.0
e 152 150 1.0
e 152 4 7.0
e 152 38 3.0
e 152 34 1.0
e 153 62 24.0
e 153 101 36.0
e 153 114 33.0
e 154 135 1.0
e 154 151 1.0
e 154 140 2.0
e 154 45 1.0
e 155 54 18.0
e 155 52 29.0
e 155 101 18.0
e 155 12 13.0
e 156 7 1.0
e 156 26 1.0
e 156 38 1.0
e 156 82 2.0
e 157 144 32.0
e 157 97 2.0
e 157 138 1.0
e 157 3 1.0
e 158 143 1.0
e 158 55 1.0
e 158 96 1.0
e 158 86 1.0
e 159 65 1.0
e 159 91 1.0
e 159 41 1.0
e 159 153 35.0
